% demand
num_movements = 57;
loading_factor = [800, 800, 1450, 1850, 1900, 1950, 850, 850, 1950, 1750, 1150, 1200, 1500, 1550, 950, 1850, 1000, 1550, 1200, 1650, 850, 1300, 1900, 1650, 1950, 1900, 1850, 1200, 950, 850, 1800, 1600, 1250, 1400, 1100, 2000, 1200, 1450, 1000, 1600, 800, 1050, 1750, 1500, 1200, 1550, 1700, 1500, 1200, 1000, 1400, 1150, 1950, 1550, 800, 1600, 1500];
pickup_time = [0, 0, 0, 0, 0, 0, 0, 0, 1, 1, 1, 1, 1, 1, 1, 3, 5, 5, 5, 5, 5, 7, 7, 7, 8, 8, 8, 8, 8, 8, 8, 9, 9, 9, 9, 9, 9, 9, 9, 11, 11, 11, 11, 11, 11, 11, 12, 12, 12, 12, 12, 12, 13, 13, 13, 13, 13];
delivery_time = [1, 1, 1, 1, 1, 1, 1, 1, 2, 5, 2, 2, 5, 4, 5, 5, 7, 6, 6, 6, 6, 8, 8, 8, 9, 9, 9, 9, 9, 9, 9, 11, 11, 11, 11, 11, 11, 11, 11, 12, 12, 12, 12, 12, 12, 12, 13, 13, 13, 13, 14, 13, 14, 14, 14, 14, 14];

% transporter definition
total_capacity = 11000;
num_decks = 4;
capacity = [3000, 3000, 1000, 4000];

% ways out of decks
num_ways_out = 2;
paths_out = array3d(decks, ways_out, decks, [
% ways out of deck d1
2, 4, 0, 0, 3, 4, 0, 0, 

% ways out of deck d2
4, 0, 0, 0, 0, 0, 0, 0,	

% ways out of deck d3
4, 0, 0, 0, 0, 0, 0, 0,	

% ways out of deck d4
0, 0, 0, 0,	0, 0, 0, 0,	

]);

